* Running in serial mode
>> Start of run:   5-DEC-2020  18:39:37

reinit: Reading from standard input
reinit: Dumped input in INPUT_TMP.80438
************************** Dump of input data file ****************************
NumberOfAtoms 20
SpinPolarized yes
#FixSpin .true.
#TotalSpin
NumberOfSpecies 3
MD.TypeOfRun  nose
MD.FinalTimeStep 250
MD.LengthTimeStep 1.0  fs
MD.InitialTemperature 300 K
MD.TargetTemperature  300  K
%block ChemicalSpeciesLabel
1  6  c
2  7  n
3  1  h
%endblock ChemicalSpeciesLabel
PAO.BasisSize dzp
 PAO.EnergyShift 0.02 Ry
MeshCutoff          100 Ry
MaxSCFIterations    100
DM.NumberPulay       3
DM.Tolerance         1e-3
WriteDenchar	.true.
%block ProjectedDensityOfStates
-10.0 10.0 0.200 500 eV
%endblock ProjectedDensityOfStates
NetCharge 0.00
%block BandLines
1  1.000  1.000 1.000  L
20 0.00   0.00   0.00  \Gamma
25 2.00   0.000  0.00  X
30 2.00   2.00   2.00  \Gamma
%endblock BandLines
LongOutput .true.
WriteCoorXmol .true.
LatticeConstant 1 Ang
%block LatticeVectors
  13.84713 0.0 0.0
  0.0 14.79643 0.0
  0.0 0.0 9.78791
%endblock LatticeVectors
#UseSaveData .true.
%block kgrid_Monkhorst_Pack
1 0 0 0.0
 0 1 0 0.0
 0 0 1 0.0
%endblock kgrid_Monkhorst_Pack
WriteMDXmol .true.
AtomicCoordinatesFormat Ang
%block AtomicCoordinatesAndAtomicSpecies
0.96690  -0.12712 0.10565  1
2.46991  -0.08075 0.09413  1
3.18420  -1.28151 0.07704  1
4.56414  -1.23054 0.05666  1
5.27434  -0.08527 0.04638  2
4.59810  1.07576 0.05676  1
5.32492  2.25856 0.02358  1
4.70235  3.50867 0.02024  1
3.31827  3.58622 0.06681  1
2.56424  2.41396 0.10608  1
3.18583  1.14270 0.08959  1
0.59560  -1.15658 0.05859  3
0.56344  0.40310 -0.76308  3
0.57844  0.32295 1.02483  3
2.68088  -2.24248 0.07458  3
5.15694  -2.14065 0.04198  3
6.41057  2.20378 -0.00848  3
5.30292  4.41350 -0.01937  3
2.82361  4.55395 0.06799  3
1.48172  2.50215 0.14396  3
 %endblock AtomicCoordinatesAndAtomicSpecies
************************** End of input data file *****************************

reinit: -----------------------------------------------------------------------
reinit: System Name:
reinit: -----------------------------------------------------------------------
reinit: System Label: siesta
reinit: -----------------------------------------------------------------------

initatom: Reading input for the pseudopotentials and atomic orbitals ----------
Species number:   1 Atomic number:    6 Label: c
Species number:   2 Atomic number:    7 Label: n
Species number:   3 Atomic number:    1 Label: h

Ground state valence configuration:   2s02  2p02
Reading pseudopotential information in formatted form from c.psf

Valence configuration for pseudopotential generation:
2s( 2.00) rc: 1.54
2p( 2.00) rc: 1.54
3d( 0.00) rc: 1.54
4f( 0.00) rc: 1.54
Ground state valence configuration:   2s02  2p03
Reading pseudopotential information in formatted form from n.psf

Valence configuration for pseudopotential generation:
2s( 2.00) rc: 1.48
2p( 3.00) rc: 1.48
3d( 0.00) rc: 1.48
4f( 0.00) rc: 1.48
Ground state valence configuration:   1s01
Reading pseudopotential information in formatted form from h.psf

Valence configuration for pseudopotential generation:
1s( 1.00) rc: 1.31
2p( 0.00) rc: 1.31
3d( 0.00) rc: 0.37
4f( 0.00) rc: 1.31
For c, standard SIESTA heuristics set lmxkb to 3
 (one more than the basis l, including polarization orbitals).
Use PS.lmax or PS.KBprojectors blocks to override.
For n, standard SIESTA heuristics set lmxkb to 3
 (one more than the basis l, including polarization orbitals).
Use PS.lmax or PS.KBprojectors blocks to override.
For h, standard SIESTA heuristics set lmxkb to 2
 (one more than the basis l, including polarization orbitals).
Use PS.lmax or PS.KBprojectors blocks to override.

<basis_specs>
c                    Z=   6    Mass=  12.010        Charge= 0.17977+309
Lmxo=1 Lmxkb= 3    BasisType=split      Semic=F
L=0  Nsemic=0  Cnfigmx=2
          i=1  nzeta=2  polorb=0  (2s)
            splnorm:   0.15000
               vcte:    0.0000
               rinn:    0.0000
               qcoe:    0.0000
               qyuk:    0.0000
               qwid:   0.10000E-01
                rcs:    0.0000      0.0000
            lambdas:    1.0000      1.0000
L=1  Nsemic=0  Cnfigmx=2
          i=1  nzeta=2  polorb=1  (2p)
            splnorm:   0.15000
               vcte:    0.0000
               rinn:    0.0000
               qcoe:    0.0000
               qyuk:    0.0000
               qwid:   0.10000E-01
                rcs:    0.0000      0.0000
            lambdas:    1.0000      1.0000
L=0  Nkbl=1  erefs: 0.17977+309
L=1  Nkbl=1  erefs: 0.17977+309
L=2  Nkbl=1  erefs: 0.17977+309
L=3  Nkbl=1  erefs: 0.17977+309
</basis_specs>

atom: Called for c                     (Z =   6)

read_vps: Pseudopotential generation method:
read_vps: ATM3      Troullier-Martins
Valence charge for ps generation:    4.00000

read_vps: Pseudopotential includes a core correction:
read_vps: Pseudo-core for xc-correction

xc_check: Exchange-correlation functional:
xc_check: Ceperley-Alder
xc_check: WARNING: Pseudopotential generated with GGA PBE functional
V l=0 = -2*Zval/r beyond r=  1.5227
V l=1 = -2*Zval/r beyond r=  1.5227
V l=2 = -2*Zval/r beyond r=  1.5227
V l=3 = -2*Zval/r beyond r=  1.5038
All V_l potentials equal beyond r=  1.5227
This should be close to max(r_c) in ps generation
All pots = -2*Zval/r beyond r=  1.5227

VLOCAL1: 99.0% of the norm of Vloc inside     18.722 Ry
VLOCAL1: 99.9% of the norm of Vloc inside     42.668 Ry
atom: Maximum radius for 4*pi*r*r*local-pseudopot. charge    1.83678
atom: Maximum radius for r*vlocal+2*Zval:    1.58088

KBgen: Kleinman-Bylander projectors:
GHOST: No ghost state for L =  0
   l= 0   rc=  1.704034   el= -0.998584   Ekb=  5.327875   kbcos=  0.314897
GHOST: No ghost state for L =  1
   l= 1   rc=  1.704034   el= -0.383998   Ekb= -3.785479   kbcos= -0.363289
GHOST: No ghost state for L =  2
   l= 2   rc=  1.791422   el=  0.002326   Ekb= -0.971263   kbcos= -0.009325
GHOST: No ghost state for L =  3
   l= 3   rc=  1.859892   el=  0.003420   Ekb= -0.399672   kbcos= -0.001232

KBgen: Total number of  Kleinman-Bylander projectors:   16
atom: -------------------------------------------------------------------------

atom: SANKEY-TYPE ORBITALS:
atom: Selected multiple-zeta basis: split

SPLIT: Orbitals with angular momentum L= 0

SPLIT: Basis orbitals for state 2s

SPLIT: PAO cut-off radius determined from an
SPLIT: energy shift=  0.020000 Ry

   izeta = 1
                 lambda =    1.000000
                     rc =    4.191849
                 energy =   -0.980459
                kinetic =    0.881507
    potential(screened) =   -1.861966
       potential(ionic) =   -5.449625

   izeta = 2
                 rmatch =    3.431921
              splitnorm =    0.150000
                 energy =   -0.849396
                kinetic =    1.300036
    potential(screened) =   -2.149433
       potential(ionic) =   -5.962781

[...]

SPLIT: Basis orbitals for state 2p

[...]

POLgen: Perturbative polarization orbital with L=  2

POLgen: Polarization orbital for state 2p

   izeta = 1
                     rc =    4.993604
                 energy =    1.232619
                kinetic =    2.527283
    potential(screened) =   -1.294664
       potential(ionic) =   -4.203101
atom: Total number of Sankey-type orbitals: 13

atm_pop: Valence configuration (for local Pseudopot. screening):
 2s( 2.00)
 2p( 2.00)
Vna: chval, zval:    4.00000   4.00000

Vna:  Cut-off radius for the neutral-atom potential:   4.993604
comcore: Pseudo-core radius Rcore=  1.791422

atom: _________________________________________________________________________

<basis_specs>
n                    Z=   7    Mass=  14.010        Charge= 0.17977+309
Lmxo=1 Lmxkb= 3    BasisType=split      Semic=F
L=0  Nsemic=0  Cnfigmx=2
          i=1  nzeta=2  polorb=0  (2s)
            splnorm:   0.15000
               vcte:    0.0000
               rinn:    0.0000
               qcoe:    0.0000
               qyuk:    0.0000
               qwid:   0.10000E-01
                rcs:    0.0000      0.0000
            lambdas:    1.0000      1.0000
L=1  Nsemic=0  Cnfigmx=2
          i=1  nzeta=2  polorb=1  (2p)
            splnorm:   0.15000
               vcte:    0.0000
               rinn:    0.0000
               qcoe:    0.0000
               qyuk:    0.0000
               qwid:   0.10000E-01
                rcs:    0.0000      0.0000
            lambdas:    1.0000      1.0000
L=0  Nkbl=1  erefs: 0.17977+309
L=1  Nkbl=1  erefs: 0.17977+309
L=2  Nkbl=1  erefs: 0.17977+309
L=3  Nkbl=1  erefs: 0.17977+309
</basis_specs>

atom: Called for n                     (Z =   7)

[...]

read_vps: Pseudopotential includes a core correction:
read_vps: Pseudo-core for xc-correction

[...]

KBgen: Kleinman-Bylander projectors:
GHOST: No ghost state for L =  0
   l= 0   rc=  1.634559   el= -1.348537   Ekb=  5.297520   kbcos=  0.333054
GHOST: No ghost state for L =  1
   l= 1   rc=  1.614250   el= -0.512415   Ekb= -5.262296   kbcos= -0.428933
GHOST: No ghost state for L =  2
   l= 2   rc=  1.718383   el=  0.002346   Ekb= -1.271998   kbcos= -0.007619
GHOST: No ghost state for L =  3
   l= 3   rc=  1.761893   el=  0.003449   Ekb= -0.494630   kbcos= -0.001017

[...]

SPLIT: Basis orbitals for state 2p

[...]

POLgen: Polarization orbital for state 2p

[...]

atm_pop: Valence configuration (for local Pseudopot. screening):
 2s( 2.00)
 2p( 3.00)
Vna: chval, zval:    5.00000   5.00000

Vna:  Cut-off radius for the neutral-atom potential:   4.388595
comcore: Pseudo-core radius Rcore=  1.554824

[...]

<basis_specs>
h                    Z=   1    Mass=  1.0100        Charge= 0.17977+309
Lmxo=0 Lmxkb= 2    BasisType=split      Semic=F
L=0  Nsemic=0  Cnfigmx=1
          i=1  nzeta=2  polorb=1  (1s)
            splnorm:   0.15000
               vcte:    0.0000
               rinn:    0.0000
               qcoe:    0.0000
               qyuk:    0.0000
               qwid:   0.10000E-01
                rcs:    0.0000      0.0000
            lambdas:    1.0000      1.0000
L=0  Nkbl=1  erefs: 0.17977+309
L=1  Nkbl=1  erefs: 0.17977+309
L=2  Nkbl=1  erefs: 0.17977+309
</basis_specs>

atom: Called for h                     (Z =   1)

read_vps: Pseudopotential generation method:
read_vps: ATM3      Troullier-Martins
Valence charge for ps generation:    1.00000

xc_check: Exchange-correlation functional:
xc_check: Ceperley-Alder
xc_check: WARNING: Pseudopotential generated with GGA PBE functional
V l=0 = -2*Zval/r beyond r=  1.2977
V l=1 = -2*Zval/r beyond r=  1.2815
V l=2 = -2*Zval/r beyond r=  1.2656
All V_l potentials equal beyond r=  1.2977
This should be close to max(r_c) in ps generation
All pots = -2*Zval/r beyond r=  1.2977

VLOCAL1: 99.0% of the norm of Vloc inside     25.776 Ry
VLOCAL1: 99.9% of the norm of Vloc inside     58.745 Ry
atom: Maximum radius for 4*pi*r*r*local-pseudopot. charge    1.52711
atom: Maximum radius for r*vlocal+2*Zval:    1.28155

KBgen: Kleinman-Bylander projectors:
GHOST: No ghost state for L =  0
   l= 0   rc=  1.434438   el= -0.456815   Ekb= -1.960338   kbcos= -0.349997
GHOST: No ghost state for L =  1
[...]
   73.5441   74.2691   76.5557   77.1258   78.2534   79.6036   80.5832   81.6534   84.1099   86.2389
   87.9694   89.8246   95.8420   99.4738  105.1088  106.6580  109.5354  114.4446
   2  1  -23.1510  -20.7111  -20.0544  -18.2213  -18.0786  -17.3630  -15.2948  -15.0100  -14.0425  -12.5179
         -12.2548  -11.8052  -10.9465  -10.7093  -10.3396   -9.9063   -9.8062   -9.6593   -9.0636   -8.9922
   -8.4272   -8.1102   -7.6620   -7.0135   -6.0884   -5.3607   -5.3054   -2.1998   -1.0588   -0.4560
    1.3163    1.6907    2.3190    2.5712    3.1969    3.4786    3.7378    4.0226    4.1116    4.2850
    4.8177    4.9609    5.9537    6.0919    6.8826    6.9187    7.3808    7.6224    7.8327    8.2396
    8.6264    8.8710    9.1117    9.5002    9.8384   10.0384   10.4278   10.6054   10.8592   11.1420
   11.3389   11.5416   11.6420   11.8221   12.1651   12.4881   12.5646   12.8117   13.2190   13.7104
   13.7441   14.1984   14.6814   15.1952   15.6855   16.4724   16.7332   16.9073   16.9745   17.3193
   17.6498   17.9418   18.1879   18.2476   18.5508   18.9495   18.9947   19.2382   19.6535   20.0011
   20.1470   20.3864   20.5936   20.6532   20.8382   21.2183   21.8413   22.1385   22.4042   22.6639
   23.1094   23.2778   23.7995   24.2657   24.7874   25.0749   25.4731   25.7608   26.2382   27.0472
   27.7525   28.3213   29.9011   30.1735   31.5253   32.1768   32.4085   33.2536   34.0716   34.8001
   35.4626   35.8833   36.6685   37.2589   38.1511   38.6646   38.8065   40.0875   40.5752   40.9111
   41.9148   42.2891   43.0354   43.3672   43.8477   44.6238   44.9689   45.8250   46.8433   47.7381
   48.0045   49.0397   49.2785   49.6031   49.9686   50.2085   51.0126   51.9847   52.8221   54.0050
   54.8271   55.3715   55.4916   55.7315   57.2048   57.7389   58.2281   58.5077   59.8555   60.6735
   61.2669   62.9470   63.3527   64.1747   64.8518   66.7580   67.9864   68.5288   69.7011   71.1530
   73.5441   74.2691   76.5557   77.1258   78.2534   79.6036   80.5832   81.6534   84.1099   86.2389
   87.9694   89.8246   95.8420   99.4738  105.1088  106.6580  109.5354  114.4446
   3  1  -23.1510  -20.7111  -20.0544  -18.2213  -18.0786  -17.3630  -15.2948  -15.0100  -14.0425  -12.5179
         -12.2548  -11.8052  -10.9465  -10.7093  -10.3396   -9.9063   -9.8062   -9.6593   -9.0636   -8.9922
   -8.4272   -8.1102   -7.6620   -7.0135   -6.0884   -5.3607   -5.3054   -2.1998   -1.0588   -0.4560
    1.3163    1.6907    2.3190    2.5712    3.1969    3.4786    3.7378    4.0226    4.1116    4.2850
    4.8177    4.9609    5.9537    6.0919    6.8826    6.9187    7.3808    7.6224    7.8327    8.2396
    8.6264    8.8710    9.1117    9.5002    9.8384   10.0384   10.4278   10.6054   10.8592   11.1420
   11.3389   11.5416   11.6420   11.8221   12.1651   12.4881   12.5646   12.8117   13.2190   13.7104
   13.7441   14.1984   14.6814   15.1952   15.6855   16.4724   16.7332   16.9073   16.9745   17.3193
   17.6498   17.9418   18.1879   18.2476   18.5508   18.9495   18.9947   19.2382   19.6535   20.0011
   20.1470   20.3864   20.5936   20.6532   20.8382   21.2183   21.8413   22.1385   22.4042   22.6639
   23.1094   23.2778   23.7995   24.2657   24.7874   25.0749   25.4731   25.7608   26.2382   27.0472
   27.7525   28.3213   29.9011   30.1735   31.5253   32.1768   32.4085   33.2536   34.0716   34.8001
   35.4626   35.8833   36.6685   37.2589   38.1511   38.6646   38.8065   40.0875   40.5752   40.9111
   41.9148   42.2891   43.0354   43.3672   43.8477   44.6238   44.9689   45.8250   46.8433   47.7381
   48.0045   49.0397   49.2785   49.6031   49.9686   50.2085   51.0126   51.9847   52.8221   54.0050
   54.8271   55.3715   55.4916   55.7315   57.2048   57.7389   58.2281   58.5077   59.8555   60.6735
   61.2669   62.9470   63.3527   64.1747   64.8518   66.7580   67.9864   68.5288   69.7011   71.1530
   73.5441   74.2691   76.5557   77.1258   78.2534   79.6036   80.5832   81.6534   84.1099   86.2389
   87.9694   89.8246   95.8420   99.4738  105.1088  106.6580  109.5354  114.4446
   4  1  -23.1510  -20.7111  -20.0544  -18.2213  -18.0786  -17.3630  -15.2948  -15.0100  -14.0425  -12.5179
         -12.2548  -11.8052  -10.9465  -10.7093  -10.3396   -9.9063   -9.8062   -9.6593   -9.0636   -8.9922
   -8.4272   -8.1102   -7.6620   -7.0135   -6.0884   -5.3607   -5.3054   -2.1998   -1.0588   -0.4560
[...]
    4.8177    4.9609    5.9537    6.0919    6.8826    6.9187    7.3808    7.6224    7.8327    8.2396
    8.6264    8.8710    9.1117    9.5002    9.8384   10.0384   10.4278   10.6054   10.8592   11.1420
   11.3389   11.5416   11.6420   11.8221   12.1651   12.4881   12.5646   12.8117   13.2190   13.7104
   13.7441   14.1984   14.6814   15.1952   15.6855   16.4724   16.7332   16.9073   16.9745   17.3193
   17.6498   17.9418   18.1879   18.2476   18.5508   18.9495   18.9947   19.2382   19.6535   20.0011
   20.1470   20.3864   20.5936   20.6532   20.8382   21.2183   21.8413   22.1385   22.4042   22.6639
   23.1094   23.2778   23.7995   24.2657   24.7874   25.0749   25.4731   25.7608   26.2382   27.0472
   27.7525   28.3213   29.9011   30.1735   31.5253   32.1768   32.4085   33.2536   34.0716   34.8001
   35.4626   35.8833   36.6685   37.2589   38.1511   38.6646   38.8065   40.0875   40.5752   40.9111
   41.9148   42.2891   43.0354   43.3672   43.8477   44.6238   44.9689   45.8250   46.8433   47.7381
   48.0045   49.0397   49.2785   49.6031   49.9686   50.2085   51.0126   51.9847   52.8221   54.0050
   54.8271   55.3715   55.4916   55.7315   57.2048   57.7389   58.2281   58.5077   59.8555   60.6735
   61.2669   62.9470   63.3527   64.1747   64.8518   66.7580   67.9864   68.5288   69.7011   71.1530
   73.5441   74.2691   76.5557   77.1258   78.2534   79.6036   80.5832   81.6534   84.1099   86.2389
   87.9694   89.8246   95.8420   99.4738  105.1088  106.6580  109.5354  114.4446

siesta: Eigenvalues (eV):
  ik is       eps
   1  1  -23.1510  -20.7111  -20.0544  -18.2213  -18.0786  -17.3630  -15.2948  -15.0100  -14.0425  -12.5179
         -12.2548  -11.8052  -10.9465  -10.7093  -10.3396   -9.9063   -9.8062   -9.6593   -9.0636   -8.9922
   -8.4272   -8.1102   -7.6620   -7.0135   -6.0884   -5.3607   -5.3054   -2.1998   -1.0588   -0.4560
    1.3163    1.6907    2.3190    2.5712    3.1969    3.4786    3.7378    4.0226    4.1116    4.2850
    4.8177    4.9609    5.9537    6.0919    6.8826    6.9187    7.3808    7.6224    7.8327    8.2396
    8.6264    8.8710    9.1117    9.5002    9.8384   10.0384   10.4278   10.6054   10.8592   11.1420
   11.3389   11.5416   11.6420   11.8221   12.1651   12.4881   12.5646   12.8117   13.2190   13.7104
   13.7441   14.1984   14.6814   15.1952   15.6855   16.4724   16.7332   16.9073   16.9745   17.3193
   17.6498   17.9418   18.1879   18.2476   18.5508   18.9495   18.9947   19.2382   19.6535   20.0011
   20.1470   20.3864   20.5936   20.6532   20.8382   21.2183   21.8413   22.1385   22.4042   22.6639
   23.1094   23.2778   23.7995   24.2657   24.7874   25.0749   25.4731   25.7608   26.2382   27.0472
   27.7525   28.3213   29.9011   30.1735   31.5253   32.1768   32.4085   33.2536   34.0716   34.8001
   35.4626   35.8833   36.6685   37.2589   38.1511   38.6646   38.8065   40.0875   40.5752   40.9111
   41.9148   42.2891   43.0354   43.3672   43.8477   44.6238   44.9689   45.8250   46.8433   47.7381
   48.0045   49.0397   49.2785   49.6031   49.9686   50.2085   51.0126   51.9847   52.8221   54.0050
   54.8271   55.3715   55.4916   55.7315   57.2048   57.7389   58.2281   58.5077   59.8555   60.6735
   61.2669   62.9470   63.3527   64.1747   64.8518   66.7580   67.9864   68.5288   69.7011   71.1530
   73.5441   74.2691   76.5557   77.1258   78.2534   79.6036   80.5832   81.6534   84.1099   86.2389
   87.9694   89.8246   95.8420   99.4738  105.1088  106.6580  109.5354  114.4446
   1  2  -23.1510  -20.7111  -20.0544  -18.2213  -18.0786  -17.3630  -15.2948  -15.0100  -14.0425  -12.5179
         -12.2548  -11.8052  -10.9465  -10.7093  -10.3396   -9.9063   -9.8062   -9.6593   -9.0636   -8.9922
   -8.4272   -8.1102   -7.6620   -7.0135   -6.0884   -5.3607   -5.3054   -2.1998   -1.0588   -0.4560
    1.3163    1.6907    2.3190    2.5712    3.1969    3.4786    3.7378    4.0226    4.1116    4.2850
    4.8177    4.9609    5.9537    6.0919    6.8826    6.9187    7.3808    7.6224    7.8327    8.2396
    8.6264    8.8710    9.1117    9.5002    9.8384   10.0384   10.4278   10.6054   10.8592   11.1420
   11.3389   11.5416   11.6420   11.8221   12.1651   12.4881   12.5646   12.8117   13.2190   13.7104
   13.7441   14.1984   14.6814   15.1952   15.6855   16.4724   16.7332   16.9073   16.9745   17.3193
   17.6498   17.9418   18.1879   18.2476   18.5508   18.9495   18.9947   19.2382   19.6535   20.0011
   20.1470   20.3864   20.5936   20.6532   20.8382   21.2183   21.8413   22.1385   22.4042   22.6639
   23.1094   23.2778   23.7995   24.2657   24.7874   25.0749   25.4731   25.7608   26.2382   27.0472
   27.7525   28.3213   29.9011   30.1735   31.5253   32.1768   32.4085   33.2536   34.0716   34.8001
   35.4626   35.8833   36.6685   37.2589   38.1511   38.6646   38.8065   40.0875   40.5752   40.9111
   41.9148   42.2891   43.0354   43.3672   43.8477   44.6238   44.9689   45.8250   46.8433   47.7381
   48.0045   49.0397   49.2785   49.6031   49.9686   50.2085   51.0126   51.9847   52.8221   54.0050
   54.8271   55.3715   55.4916   55.7315   57.2048   57.7389   58.2281   58.5077   59.8555   60.6735
   61.2669   62.9470   63.3527   64.1747   64.8518   66.7580   67.9864   68.5288   69.7011   71.1530
   73.5441   74.2691   76.5557   77.1258   78.2534   79.6036   80.5832   81.6534   84.1099   86.2389
   87.9694   89.8246   95.8420   99.4738  105.1088  106.6580  109.5354  114.4446
siesta: Fermi energy =      -3.899329 eV

siesta: PDOS info
siesta: E1 -- E2, sigma [eV], nhist:  -10.000 --   10.000    0.200 500

siesta: Program's energy decomposition (eV):
siesta: Ebs     =      -651.793403
siesta: Eions   =      3141.017114
siesta: Ena     =       654.630692
siesta: Ekin    =      1395.612808
siesta: Enl     =      -192.016595
siesta: Eso     =         0.000000
siesta: Edftu   =         0.000000
siesta: DEna    =       -43.682723
siesta: DUscf   =         5.248136
siesta: DUext   =         0.000000
siesta: Exc     =      -711.818491
siesta: eta*DQ  =         0.000000
siesta: Emadel  =         0.000000
siesta: Emeta   =         0.000000
siesta: Emolmec =         0.000000
siesta: Ekinion =         0.770493
siesta: Eharris =     -2032.272793
siesta: Etot    =     -2032.272793
siesta: FreeEng =     -2032.272793

siesta: Final energy (eV):
siesta:  Band Struct. =    -651.793403
siesta:       Kinetic =    1395.612808
siesta:       Hartree =    4624.673780
siesta:       Edftu   =       0.000000
siesta:       Eso     =       0.000000
siesta:    Ext. field =       0.000000
siesta:   Exch.-corr. =    -711.818491
siesta:  Ion-electron =  -10473.449607
siesta:       Ion-ion =    3131.938224
siesta:       Ekinion =       0.770493
siesta:         Total =   -2032.272793
siesta:         Fermi =      -3.899329

siesta: Atomic forces (eV/Ang):
siesta:      1    1.990762    0.883683    0.843394
siesta:      2    1.060982    0.433610    0.348703
siesta:      3   -2.839033    0.011588    0.074392
siesta:      4    1.401593   -0.022910    0.233371
siesta:      5   -0.223765   -0.463037    0.306979
siesta:      6    0.498562   -1.466630   -0.078336
siesta:      7    0.220802    1.192201    1.028659
siesta:      8    1.124791    1.681233    0.725574
siesta:      9   -2.453728   -1.314978    0.446966
siesta:     10   -0.469487    2.772485   -1.349196
siesta:     11   -0.625896   -1.967537    0.328513
siesta:     12   -0.495469   -0.931656   -0.048345
siesta:     13   -1.253326   -0.093846   -1.223226
siesta:     14    0.019499    0.184369    0.046641
siesta:     15    0.144149    0.974009    0.037811
siesta:     16    1.083491   -0.161257   -0.163620
siesta:     17   -0.868728   -0.064999   -0.666453
siesta:     18   -0.715956   -1.235236   -0.283076
siesta:     19    1.162594   -0.448006   -0.069055
siesta:     20    0.914437    0.229010    0.156113
siesta: ----------------------------------------
siesta:    Tot   -0.323724    0.192097    0.695808

siesta: Stress tensor (static) (eV/Ang**3):
siesta:    -0.000083    0.001880   -0.000671
siesta:     0.001879    0.000945   -0.000380
siesta:    -0.000671   -0.000380   -0.000196

siesta: Cell volume =       2005.426183 Ang**3

siesta: Pressure (static):
siesta:                Solid            Molecule  Units
siesta:          -0.00000242          0.00000219  Ry/Bohr**3
siesta:          -0.00022189          0.00020107  eV/Ang**3
siesta:          -0.35550411          0.32216082  kBar
(Free)E+ p_basis*V_orbitals  =       -2027.698338
(Free)Eharris+ p_basis*V_orbitals  =       -2027.698338
     spin moment: S , {S} =    0.00000       0.0       0.0   0.00000

siesta: Electric dipole (a.u.)  =   -0.861528   -0.134454    0.177390
siesta: Electric dipole (Debye) =   -2.189789   -0.341747    0.450880

cite: Please see "siesta.bib" for an exhaustive BiBTeX file.
cite: This calculation has made use of the following articles.
cite: Articles are encouraged to be cited in a published work.
        Primary SIESTA paper
          DOI: www.doi.org/10.1088/0953-8984/14/11/302

Routine            Calls   Time/call    Tot.time        %
siesta                 1    1289.041    1289.041   100.00
Setup                  1       0.253       0.253     0.02
bands                  3       0.792       2.375     0.18
KSV_init               1       0.000       0.000     0.00
IterGeom             250       5.141    1285.358    99.71
state_init           250       0.027       6.872     0.53
hsparse              250       0.002       0.470     0.04
overlap              250       0.020       4.952     0.38
Setup_H0             250       0.667     166.663    12.93
naefs                500       0.000       0.070     0.01
MolMec               500       0.000       0.001     0.00
kinefsm              500       0.016       8.209     0.64
nlefsm               500       0.090      44.930     3.49
DHSCF_Init           250       0.550     137.580    10.67
DHSCF1               250       0.009       2.203     0.17
INITMESH             250       0.000       0.002     0.00
DHSCF2               250       0.541     135.375    10.50
REMESH               250       0.074      18.507     1.44
REORD              13634       0.001      12.877     1.00
PHION                250       0.384      95.966     7.44
COMM_BSC           19270       0.001      15.060     1.17
POISON              2534       0.032      81.716     6.34
fft                 5068       0.012      58.618     4.55
IterSCF             1783       0.467     833.305    64.65
setup_H             2033       0.365     742.146    57.57
DHSCF               2284       0.433     988.949    76.72
DHSCF3              2284       0.363     829.434    64.35
rhoofd              2284       0.124     283.961    22.03
XC                  2284       0.078     177.431    13.76
GXC-CellXC          2284       0.069     156.762    12.16
cellXC              2284       0.069     156.733    12.16
vmat                2283       0.108     246.051    19.09
compute_dm          1783       0.049      86.668     6.72
diagon              1783       0.048      85.990     6.67
r-eigvec            3566       0.018      64.214     4.98
r-buildHS           3566       0.000       0.839     0.07
rdiag               3568       0.018      63.393     4.92
rdiag1              3568       0.000       1.725     0.13
rdiag2              3568       0.002       5.362     0.42
rdiag3              3568       0.011      38.994     3.03
rdiag4              3568       0.005      17.092     1.33
r-buildD            1783       0.012      21.302     1.65
MIXER               1533       0.001       1.522     0.12
PostSCF              250       1.112     277.943    21.56
DHSCF4               250       0.638     159.507    12.37
dfscf                250       0.576     143.994    11.17
overfsm              250       0.013       3.193     0.25
state_analysis       250       0.001       0.313     0.02
siesta_move          250       0.001       0.140     0.01
Analysis               1       3.427       3.427     0.27
c-eigval             152       0.015       2.341     0.18
c-buildHS            152       0.001       0.183     0.01
cdiag                152       0.014       2.158     0.17
cdiag1               152       0.002       0.256     0.02
cdiag2               152       0.006       0.883     0.07
cdiag3               152       0.007       1.017     0.08
pdos                   1       0.756       0.756     0.06
optical                1       0.000       0.000     0.00

>> End of run:   5-DEC-2020  19:01:07
Job completed